c This is QMaxSAT 2017 based on 14.07
c This is Glucose 3.0
c This is MiniSat 2.2.0
c WARNING: for repeatability, setting FPU to use double precision
c card = mrwto, comp = 0, pmodel = 0, narr = 2, mct = 24, verb = 0
cr firstCPXsol 0 0 0
c top = 81479
c |  Number of variables:    12790                                            |
c |  Number of clauses:      2763592                                          |
c |  Weight of hard clauses: 81479                                            |
c |  Number of soft clauses: 1104                                             |
c |  Number of unit soft clauses: 1104                                        |
c |  Maximum Cardinality (by unit): 162956       (162956      )               |
c last restart ## conflicts  :  5 1106 
o 1981 | cpuTime 0.222595 s
c Sum of weights = 81478
c A number of soft clauses remained = 552
c MRWTO encoding for Pseudo-Boolean Constraints
c sizeMax=1981
c No.0 Divisor=13	generated by pow1
c No.1 Divisor=13	generated by pow1
c No.2 Divisor=13	generated by pow1
c p0= 13	p1= 13	p2= 13	
c number of digits = 4
c linkingVar[0].size = 13, linkingVar[1].size = 13, linkingVar[2].size = 12, linkingVar[3].size = 1, 
c Pseudo-Boolean Constraints: 12678 variables and 132322 clauses
c Sum of weights = 81478
c A number of soft clauses remained = 552
c MRWTO encoding for Pseudo-Boolean Constraints
c sizeMax=1981
c No.0 Divisor=13	generated by pow1
c No.1 Divisor=13	generated by pow1
c No.2 Divisor=13	generated by pow1
c p0= 13	p1= 13	p2= 13	
c number of digits = 4
c linkingVar[0].size = 13, linkingVar[1].size = 13, linkingVar[2].size = 12, linkingVar[3].size = 1, 
c Pseudo-Boolean Constraints: 12678 variables and 132322 clauses
c last restart ## conflicts  :  129 1742 
o 1900 | cpuTime 9.91789 s
c last restart ## conflicts  :  214 1868 
o 1846 | cpuTime 9.95423 s
c last restart ## conflicts  :  24 4773 
o 1754 | cpuTime 9.98494 s
c last restart ## conflicts  :  1350 1279 
o 1669 | cpuTime 10.3197 s
c last restart ## conflicts  :  43 1665 
o 1479 | cpuTime 14.9187 s
c last restart ## conflicts  :  201 1273 
o 1383 | cpuTime 17.9812 s
c last restart ## conflicts  :  118 1216 
o 1356 | cpuTime 31.3858 s
c last restart ## conflicts  :  135 1418 
o 1221 | cpuTime 38.2256 s
c last restart ## conflicts  :  187 1096 
o 1207 | cpuTime 56.882 s
c last restart ## conflicts  :  98 1408 
o 1034 | cpuTime 58.3074 s
c last restart ## conflicts  :  10401 993 
o 1025 | cpuTime 100.752 s
c last restart ## conflicts  :  7334 1006 
o 1021 | cpuTime 137.616 s
c last restart ## conflicts  :  13194 1120 
o 1003 | cpuTime 223.035 s
c last restart ## conflicts  :  383 1029 
o 998 | cpuTime 224.995 s
c last restart ## conflicts  :  6380 1030 
o 984 | cpuTime 301.646 s
c last restart ## conflicts  :  1346 1306 
o 957 | cpuTime 342.121 s
c last restart ## conflicts  :  4660 1262 
o 925 | cpuTime 373.555 s
c last restart ## conflicts  :  792 1115 
o 897 | cpuTime 1084.39 s
c last restart ## conflicts  :  304 1044 
o 892 | cpuTime 1205.99 s
c last restart ## conflicts  :  2530 1079 
o 883 | cpuTime 1938.22 s
c last restart ## conflicts  :  3160 933 
o 881 | cpuTime 2445.65 s
c last restart ## conflicts  :  2 1586 
o 871 | cpuTime 2506.97 s
c last restart ## conflicts  :  2402 1074 
o 865 | cpuTime 2559.37 s
c last restart ## conflicts  :  4751 942 
o 862 | cpuTime 3130.09 s
s UNKNOWN
c Search is stopped by a limit (maybe time-limit)
cr positiVarArr: [ | 7@1(1->7) | 41@1(2->17) | 66@1(3->18) | 155@1(7->11) | 169@1(8->1) | 243@1(11->3) | 338@1(15->2) | 405@1(17->21) | 430@1(18->22) | 447@1(19->15) | 488@1(21->8) | 523@1(22->19) | 592@2(1->16) | 660@2(4->12) | 692@2(5->20) | 720@2(6->24) | 772@2(9->4) | 797@2(10->5) | 841@2(12->1) | 873@2(13->9) | 911@2(14->23) | 942@2(16->6) | 1046@2(20->14) | 1117@2(23->13) | 1138@2(24->10) | ]
cr the 1-th chain: [ 1->7->11->3->18->22->19->15->2->17->21->8->1 ] (#non-depot=11) {#cumul.=12}
cr the 2-th chain: [ 1->16->6->24->10->5->20->14->23->13->9->4->12->1 ] (#non-depot=12) {#cumul.=24}
c Latest Answer = 0 by 25 loops
c restarts              : 39160
c conflicts             : 13260670       (3690 /sec)
c decisions             : 39663293       (0.00 % random) (11038 /sec)
c propagations          : 16595861895    (4618412 /sec)
c conflict literals     : 3373359086     (38.73 % deleted)
c Memory used           : 857.00 MB
c CPU time              : 3593.41 s
